x04m01e2t24tp2_01
3914
3914
3914
3914
3914
3914
4005
4005
4005
4005
4005
4010
4120
4120
4120
4120
4235
4235
4304
4304
4341
4404
4416
4416
4416
4416
4416
4416
4416
4416
4416
4416
4416
4416
4416
4416
4416
4416
4416
4416
4416
4416
4416
4416
4416
4416
4416
4416
4416
4416
4416
4416
4416
4416
4416
4416
4416
4416
4416
4416
4416
4416
4416
4416
4416
4416
4416
4416
4416
4416
4416
4416
4416
4416
4416
4416
4416
4416
4416
4416
4416
4416
4416
4416
4416
4416
4416
4416
4416
4416
4416
4416
4416
4416
4416
4416
4416
4416
4416
4416
4416
4416
4416
4416
4416
4416
4416
4416
4416
4416
4416
4416
4416
4416
4416
4416
4416
4416
4416
4416
4419
4419
4419
4419
4419
4419
4419
4419
4428
4428
4428
4428
4428
4428
4428
4428
4428
4428
4428
4428
4428
4428
4428
4428
4428
4428
4428
4428
4428
4428
4428
4428
4428
4428
4428
4428
4428
4428
4428
4428
4428
4428
4428
4428
4428
4428
4428
4428
4428
4428
4428
4428
4428
4428
4428
4428
4428
4428
4428
4428
4428
4428
4428
4428
4428
4428
4428
4428
4428
4428
4428
4428
4428
4428
4428
4428
4428
4428
4428
4428
4428
4428
4428
4428
4428
4428
4428
4428
4428
4428
4428
4428
4428
4428
4428
4428
4428
4428
4428
4428
4428
4428
4428
4428
4428
4428
4428
4428
4428
4428
4428
4428
4428
4428
4428
4428
4428
4428
4428
4428
4428
4428
4428
4428
4428
4428
4428
4428
4428
4428
4428
4428
4428
4428
4428
4428
4428
4428
4428
4428
4428
4428
4428
4428
4428
4428
4428
4428
4428
4428
4428
4428
4428
4428
4428
4428
4428
4428
4428
4428
4428
4428
4428
4428
4428
4428
4428
4428
4428
4428
4428
4428
4428
4428
4428
4428
4428
4428
4428
4428
4428
4428
4428
4428
4428
4428
4428
4428
4428
4428
4428
4428
4428
4428
4428
4428
4428
4428
4428
4428
4428
4428
4428
4428
4428
4428
4428
4428
4428
4428
4428
4428
4428
4428
4428
4428
4428
4428
4428
4428
4428
4428
4428
4428
4428
4428
4428
4428
4428
4428
4428
4428
4428
4428
4428
4428
4428
4428
4428
4428
4428
4428
4428
4428
4428
4428
4428
4428
4428
4428
4428
4428
4428
4428
4428
4428
4428
4428
4428
4428
4428
4428
4428
4428
4428
4428
4428
4428
4428
4428
4428
4428
4428
4428
4428
4428
4428
4428
4428
4428
4428
4428
4428
4428
4428
4428
4428
4428
4428
4428
4428
4428
4428
4428
4428
4428
4428
4428
4428
4428
4428
4428
4428
4428
4428
4428
4428
4428
4428
4428
4428
4428
4428
4428
4428
4428
4428
4428
4428
4428
4428
4428
4428
4428
4428
4428
4428
4428
4428
4428
4428
4428
4452
4452
4452
4452
4452
4452
4452
4452
4452
4452
4452
4452
4452
4452
4452
4452
4452
4452
4452
4452
4452
4452
4452
4452
4452
4452
4452
4452
4452
4452
4452
4452
4452
4452
4452
4452
4452
4452
4452
4452
4452
4452
4452
4452
4452
4452
4452
4452
4452
4452
4452
4452
4452
4452
4452
4452
4452
4452
4452
4452
4452
4452
4452
4452
4452
4452
4452
4452
4452
4452
4452
4452
4452
4452
4452
4452
4452
4452
4452
4452
4452
4452
4452
4452
4452
4452
4452
4452
4452
4452
4452
4452
4452
4452
4452
4452
4452
4452
4452
4452
4452
4452
4452
4452
4452
4452
4452
4452
4452
4452
4452
4452
4452
4452
4452
4452
4452
4452
4452
4452
4452
4452
4452
4452
4452
4452
4452
4452
4452
4452
4452
4452
4452
4452
4452
4452
4452
4452
4452
4452
4452
4452
4452
4452
4452
4452
4452
4452
4452
4452
4452
4452
4452
4452
4452
4452
4452
4452
4452
4452
4452
4452
4452
4452
4452
4452
4452
4452
4452
4452
4452
4452
4452
4452
4452
4452
4452
4452
4452
4452
4452
4452
4452
4452
4452
4452
4452
4452
4452
4452
4452
4452
4452
4452
4452
4452
4452
4452
4452
4452
4452
4452
4452
4452
4452
4452
4452
4452
4452
4452
4452
4452
4452
4452
4452
4452
4452
4452
4452
4452
4452
4452
4452
4452
4452
4452
4452
4452
4452
4452
4452
4452
4452
4452
4452
4452
4452
4452
4452
4452
4452
4452
4452
4452
4452
4452
4452
4452
4452
4452
4452
4452
4452
4452
4452
4452
4452
4452
4452
4452
4452
4452
4452
4452
4452
4452
4452
4452
4452
4452
4452
4452
4452
4452
4452
4452
4452
4452
4452
4452
4452
4452
4452
4452
4452
4452
4452
4452
4452
4452
4452
4452
4452
4452
4452
4452
4452
4452
4452
4452
4452
4452
4452
4452
4452
4452
4452
4452
4452
4452
4452
4452
4452
4452
4452
4452
4452
4452
4452
4452
4452
4452
4452
4452
4452
4452
4452
4452
4452
4452
4452
4452
4452
4452
4452
4452
4452
4452
4452
4452
4452
4452
4452
4452
4452
4452
4452
4452
4452
4452
4452
4452
4452
4452
4452
4452
4452
4452
4452
4452
4452
4452
4452
4452
4452
4452
4452
4452
4452
4452
4452
4452
4452
4452
4452
4452
4452
4452
4452
4452
4452
4452
4452
4452
4452
4452
4452
4452
4452
4452
4452
4452
4452
4452
4452
4452
4452
4452
4452
4452
4452
4452
4452
4452
4452
4452
4452
4452
4452
4452
4452
4452
4452
4452
4452
4452
4452
4452
4452
4452
4452
4452
4452
4452
4452
4452
4452
4452
4452
4452
4452
4452
4452
4452
4452
4452
4452
4452
4452
4452
4452
4452
4452
4452
4452
4452
4452
4452
4452
4452
4452
4452
4452
4452
4452
4452
4452
4452
4452
4452
4452
4452
4452
4452
4452
4452
4452
4452
4452
4452
4452
4452
4452
4452
4452
4452
4452
4452
4452
4452
4452
4452
4452
4452
4452
4452
4452
4452
4452
4452
4452
4452
4452
4452
4452
4452
4452
4452
4452
4452
4452
4452
4452
4452
4452
4452
4452
4452
4452
4452
4452
4452
4452
4452
4452
4452
4452
4452
4452
4452
4452
4452
4452
4452
4452
4452
4452
4452
4452
4452
4452
4452
4452
4452
4452
4452
4452
4452
4452
4452
4452
4452
4452
4452
4452
4452
4452
4452
